542531
764461
344264
908356
177210
169550
222851
904449
872207
52681
609604
130336
480365
93013
632802
268560
943207
779822
107983
955637
600225
86037
67208
298860
619598
232043
584167
894395
9299
58406
66838
312538
473802
572269
273694
670680
881891
329942
950941
632748
340582
561658
516822
966873
285972
602353
200866
900604
26795
503471
718533
389109
424775
671098
994076
269104
397541
96583
749042
404175
232323
128624
980401
686390
894372
175509
48821
964466
247215
100172
288444
461959
693495
788102
13242
585108
230486
17471
706825
975909
931698
342241
51262
910741
991265
255670
327703
724318
820009
475464
423824
472319
613920
453080
885588
521608
913010
532599
462545
849477
